; benchmark generated from python API
(set-info :status unknown)
(declare-fun cell_1_3 () Int)
(declare-fun cell_1_4 () Int)
(declare-fun cell_2_7 () Int)
(declare-fun cell_2_8 () Int)
(declare-fun cell_3_1 () Int)
(declare-fun cell_3_6 () Int)
(declare-fun cell_4_2 () Int)
(declare-fun cell_4_3 () Int)
(declare-fun cell_5_6 () Int)
(declare-fun cell_5_9 () Int)
(declare-fun cell_6_4 () Int)
(declare-fun cell_6_8 () Int)
(declare-fun cell_7_1 () Int)
(declare-fun cell_7_5 () Int)
(declare-fun cell_8_2 () Int)
(declare-fun cell_9_9 () Int)
(declare-fun cell_1_1 () Int)
(declare-fun cell_2_1 () Int)
(declare-fun cell_4_1 () Int)
(declare-fun cell_5_1 () Int)
(declare-fun cell_6_1 () Int)
(declare-fun cell_8_1 () Int)
(declare-fun cell_9_1 () Int)
(declare-fun cell_1_2 () Int)
(declare-fun cell_2_2 () Int)
(declare-fun cell_3_2 () Int)
(declare-fun cell_5_2 () Int)
(declare-fun cell_6_2 () Int)
(declare-fun cell_7_2 () Int)
(declare-fun cell_9_2 () Int)
(declare-fun cell_2_3 () Int)
(declare-fun cell_3_3 () Int)
(declare-fun cell_5_3 () Int)
(declare-fun cell_6_3 () Int)
(declare-fun cell_7_3 () Int)
(declare-fun cell_8_3 () Int)
(declare-fun cell_9_3 () Int)
(declare-fun cell_2_4 () Int)
(declare-fun cell_3_4 () Int)
(declare-fun cell_4_4 () Int)
(declare-fun cell_5_4 () Int)
(declare-fun cell_7_4 () Int)
(declare-fun cell_8_4 () Int)
(declare-fun cell_9_4 () Int)
(declare-fun cell_1_5 () Int)
(declare-fun cell_2_5 () Int)
(declare-fun cell_3_5 () Int)
(declare-fun cell_4_5 () Int)
(declare-fun cell_5_5 () Int)
(declare-fun cell_6_5 () Int)
(declare-fun cell_8_5 () Int)
(declare-fun cell_9_5 () Int)
(declare-fun cell_1_6 () Int)
(declare-fun cell_2_6 () Int)
(declare-fun cell_4_6 () Int)
(declare-fun cell_6_6 () Int)
(declare-fun cell_7_6 () Int)
(declare-fun cell_8_6 () Int)
(declare-fun cell_9_6 () Int)
(declare-fun cell_1_7 () Int)
(declare-fun cell_3_7 () Int)
(declare-fun cell_4_7 () Int)
(declare-fun cell_5_7 () Int)
(declare-fun cell_6_7 () Int)
(declare-fun cell_7_7 () Int)
(declare-fun cell_8_7 () Int)
(declare-fun cell_9_7 () Int)
(declare-fun cell_1_8 () Int)
(declare-fun cell_3_8 () Int)
(declare-fun cell_4_8 () Int)
(declare-fun cell_5_8 () Int)
(declare-fun cell_7_8 () Int)
(declare-fun cell_8_8 () Int)
(declare-fun cell_9_8 () Int)
(declare-fun cell_1_9 () Int)
(declare-fun cell_2_9 () Int)
(declare-fun cell_3_9 () Int)
(declare-fun cell_4_9 () Int)
(declare-fun cell_6_9 () Int)
(declare-fun cell_7_9 () Int)
(declare-fun cell_8_9 () Int)
(assert
 (= cell_1_3 2))
(assert
 (= cell_1_4 1))
(assert
 (= cell_2_7 1))
(assert
 (= cell_2_8 2))
(assert
 (= cell_3_1 1))
(assert
 (= cell_3_6 2))
(assert
 (= cell_4_2 2))
(assert
 (= cell_4_3 1))
(assert
 (= cell_5_6 1))
(assert
 (= cell_5_9 2))
(assert
 (= cell_6_4 2))
(assert
 (= cell_6_8 1))
(assert
 (= cell_7_1 2))
(assert
 (= cell_7_5 1))
(assert
 (= cell_8_2 1))
(assert
 (= cell_9_9 1))
(assert
 (let (($x591 (= cell_1_1 9)))
 (let (($x93 (= cell_1_1 8)))
 (let (($x558 (= cell_1_1 7)))
 (let (($x3805 (= cell_1_1 6)))
 (let (($x1074 (= cell_1_1 5)))
 (let (($x900 (= cell_1_1 4)))
 (let (($x3480 (= cell_1_1 3)))
 (let (($x3060 (= cell_1_1 2)))
 (let (($x2385 (= cell_1_1 1)))
 (or $x2385 $x3060 $x3480 $x900 $x1074 $x3805 $x558 $x93 $x591)))))))))))
(assert
 (let (($x2894 (= cell_2_1 9)))
 (let (($x2478 (= cell_2_1 8)))
 (let (($x3154 (= cell_2_1 7)))
 (let (($x2750 (= cell_2_1 6)))
 (let (($x2263 (= cell_2_1 5)))
 (let (($x1239 (= cell_2_1 4)))
 (let (($x2632 (= cell_2_1 3)))
 (let (($x2177 (= cell_2_1 2)))
 (let (($x1957 (= cell_2_1 1)))
 (or $x1957 $x2177 $x2632 $x1239 $x2263 $x2750 $x3154 $x2478 $x2894)))))))))))
(assert
 (let (($x272 (= cell_3_1 1)))
 (or $x272 (= cell_3_1 2) (= cell_3_1 3) (= cell_3_1 4) (= cell_3_1 5) (= cell_3_1 6) (= cell_3_1 7) (= cell_3_1 8) (= cell_3_1 9))))
(assert
 (let (($x2318 (= cell_4_1 9)))
 (let (($x1209 (= cell_4_1 8)))
 (let (($x527 (= cell_4_1 7)))
 (let (($x3791 (= cell_4_1 6)))
 (let (($x653 (= cell_4_1 5)))
 (let (($x3374 (= cell_4_1 4)))
 (let (($x278 (= cell_4_1 3)))
 (let (($x3171 (= cell_4_1 2)))
 (let (($x1112 (= cell_4_1 1)))
 (or $x1112 $x3171 $x278 $x3374 $x653 $x3791 $x527 $x1209 $x2318)))))))))))
(assert
 (let (($x1627 (= cell_5_1 9)))
 (let (($x1975 (= cell_5_1 8)))
 (let (($x1553 (= cell_5_1 7)))
 (let (($x4947 (= cell_5_1 6)))
 (let (($x1852 (= cell_5_1 5)))
 (let (($x2929 (= cell_5_1 4)))
 (let (($x3088 (= cell_5_1 3)))
 (let (($x1212 (= cell_5_1 2)))
 (let (($x1308 (= cell_5_1 1)))
 (or $x1308 $x1212 $x3088 $x2929 $x1852 $x4947 $x1553 $x1975 $x1627)))))))))))
(assert
 (let (($x2891 (= cell_6_1 9)))
 (let (($x3248 (= cell_6_1 8)))
 (let (($x3735 (= cell_6_1 7)))
 (let (($x3560 (= cell_6_1 6)))
 (let (($x3705 (= cell_6_1 5)))
 (let (($x1367 (= cell_6_1 4)))
 (let (($x1761 (= cell_6_1 3)))
 (let (($x495 (= cell_6_1 2)))
 (let (($x196 (= cell_6_1 1)))
 (or $x196 $x495 $x1761 $x1367 $x3705 $x3560 $x3735 $x3248 $x2891)))))))))))
(assert
 (let (($x1770 (= cell_7_1 2)))
 (or (= cell_7_1 1) $x1770 (= cell_7_1 3) (= cell_7_1 4) (= cell_7_1 5) (= cell_7_1 6) (= cell_7_1 7) (= cell_7_1 8) (= cell_7_1 9))))
(assert
 (let (($x3569 (= cell_8_1 9)))
 (let (($x3168 (= cell_8_1 8)))
 (let (($x8164 (= cell_8_1 7)))
 (let (($x3796 (= cell_8_1 6)))
 (let (($x2231 (= cell_8_1 5)))
 (let (($x1358 (= cell_8_1 4)))
 (let (($x902 (= cell_8_1 3)))
 (let (($x2598 (= cell_8_1 2)))
 (let (($x935 (= cell_8_1 1)))
 (or $x935 $x2598 $x902 $x1358 $x2231 $x3796 $x8164 $x3168 $x3569)))))))))))
(assert
 (let (($x2445 (= cell_9_1 9)))
 (let (($x2206 (= cell_9_1 8)))
 (let (($x3031 (= cell_9_1 7)))
 (let (($x1171 (= cell_9_1 6)))
 (let (($x515 (= cell_9_1 5)))
 (let (($x1634 (= cell_9_1 4)))
 (let (($x2048 (= cell_9_1 3)))
 (let (($x2850 (= cell_9_1 2)))
 (let (($x3616 (= cell_9_1 1)))
 (or $x3616 $x2850 $x2048 $x1634 $x515 $x1171 $x3031 $x2206 $x2445)))))))))))
(assert
 (let (($x3620 (= cell_1_2 9)))
 (let (($x1888 (= cell_1_2 8)))
 (let (($x1357 (= cell_1_2 7)))
 (let (($x2323 (= cell_1_2 6)))
 (let (($x2103 (= cell_1_2 5)))
 (let (($x3080 (= cell_1_2 4)))
 (let (($x3258 (= cell_1_2 3)))
 (let (($x423 (= cell_1_2 2)))
 (let (($x2002 (= cell_1_2 1)))
 (or $x2002 $x423 $x3258 $x3080 $x2103 $x2323 $x1357 $x1888 $x3620)))))))))))
(assert
 (let (($x3481 (= cell_2_2 9)))
 (let (($x1393 (= cell_2_2 8)))
 (let (($x1301 (= cell_2_2 7)))
 (let (($x613 (= cell_2_2 6)))
 (let (($x1751 (= cell_2_2 5)))
 (let (($x2353 (= cell_2_2 4)))
 (let (($x1131 (= cell_2_2 3)))
 (let (($x3602 (= cell_2_2 2)))
 (let (($x2427 (= cell_2_2 1)))
 (or $x2427 $x3602 $x1131 $x2353 $x1751 $x613 $x1301 $x1393 $x3481)))))))))))
(assert
 (let (($x1129 (= cell_3_2 9)))
 (let (($x2457 (= cell_3_2 8)))
 (let (($x1098 (= cell_3_2 7)))
 (let (($x9290 (= cell_3_2 6)))
 (let (($x307 (= cell_3_2 5)))
 (let (($x3225 (= cell_3_2 4)))
 (let (($x383 (= cell_3_2 3)))
 (let (($x3486 (= cell_3_2 2)))
 (let (($x3103 (= cell_3_2 1)))
 (or $x3103 $x3486 $x383 $x3225 $x307 $x9290 $x1098 $x2457 $x1129)))))))))))
(assert
 (let (($x3199 (= cell_4_2 2)))
 (or (= cell_4_2 1) $x3199 (= cell_4_2 3) (= cell_4_2 4) (= cell_4_2 5) (= cell_4_2 6) (= cell_4_2 7) (= cell_4_2 8) (= cell_4_2 9))))
(assert
 (let (($x3021 (= cell_5_2 9)))
 (let (($x697 (= cell_5_2 8)))
 (let (($x3833 (= cell_5_2 7)))
 (let (($x2392 (= cell_5_2 6)))
 (let (($x1213 (= cell_5_2 5)))
 (let (($x2896 (= cell_5_2 4)))
 (let (($x3589 (= cell_5_2 3)))
 (let (($x211 (= cell_5_2 2)))
 (let (($x3086 (= cell_5_2 1)))
 (or $x3086 $x211 $x3589 $x2896 $x1213 $x2392 $x3833 $x697 $x3021)))))))))))
(assert
 (let (($x2981 (= cell_6_2 9)))
 (let (($x6 (= cell_6_2 8)))
 (let (($x3710 (= cell_6_2 7)))
 (let (($x183 (= cell_6_2 6)))
 (let (($x1315 (= cell_6_2 5)))
 (let (($x1558 (= cell_6_2 4)))
 (let (($x317 (= cell_6_2 3)))
 (let (($x932 (= cell_6_2 2)))
 (let (($x3130 (= cell_6_2 1)))
 (or $x3130 $x932 $x317 $x1558 $x1315 $x183 $x3710 $x6 $x2981)))))))))))
(assert
 (let (($x4541 (= cell_7_2 9)))
 (let (($x3337 (= cell_7_2 8)))
 (let (($x108 (= cell_7_2 7)))
 (let (($x1025 (= cell_7_2 6)))
 (let (($x3675 (= cell_7_2 5)))
 (let (($x1087 (= cell_7_2 4)))
 (let (($x2012 (= cell_7_2 3)))
 (let (($x548 (= cell_7_2 2)))
 (let (($x491 (= cell_7_2 1)))
 (or $x491 $x548 $x2012 $x1087 $x3675 $x1025 $x108 $x3337 $x4541)))))))))))
(assert
 (let (($x3358 (= cell_8_2 1)))
 (or $x3358 (= cell_8_2 2) (= cell_8_2 3) (= cell_8_2 4) (= cell_8_2 5) (= cell_8_2 6) (= cell_8_2 7) (= cell_8_2 8) (= cell_8_2 9))))
(assert
 (let (($x228 (= cell_9_2 9)))
 (let (($x61 (= cell_9_2 8)))
 (let (($x2712 (= cell_9_2 7)))
 (let (($x1451 (= cell_9_2 6)))
 (let (($x471 (= cell_9_2 5)))
 (let (($x3407 (= cell_9_2 4)))
 (let (($x4795 (= cell_9_2 3)))
 (let (($x2900 (= cell_9_2 2)))
 (let (($x1543 (= cell_9_2 1)))
 (or $x1543 $x2900 $x4795 $x3407 $x471 $x1451 $x2712 $x61 $x228)))))))))))
(assert
 (let (($x1742 (= cell_1_3 2)))
 (or (= cell_1_3 1) $x1742 (= cell_1_3 3) (= cell_1_3 4) (= cell_1_3 5) (= cell_1_3 6) (= cell_1_3 7) (= cell_1_3 8) (= cell_1_3 9))))
(assert
 (let (($x4630 (= cell_2_3 9)))
 (let (($x1780 (= cell_2_3 8)))
 (let (($x1056 (= cell_2_3 7)))
 (let (($x975 (= cell_2_3 6)))
 (let (($x2284 (= cell_2_3 5)))
 (let (($x5337 (= cell_2_3 4)))
 (let (($x2601 (= cell_2_3 3)))
 (let (($x588 (= cell_2_3 2)))
 (let (($x2647 (= cell_2_3 1)))
 (or $x2647 $x588 $x2601 $x5337 $x2284 $x975 $x1056 $x1780 $x4630)))))))))))
(assert
 (let (($x2022 (= cell_3_3 9)))
 (let (($x125 (= cell_3_3 8)))
 (let (($x3162 (= cell_3_3 7)))
 (let (($x216 (= cell_3_3 6)))
 (let (($x2833 (= cell_3_3 5)))
 (let (($x2037 (= cell_3_3 4)))
 (let (($x3314 (= cell_3_3 3)))
 (let (($x2186 (= cell_3_3 2)))
 (let (($x308 (= cell_3_3 1)))
 (or $x308 $x2186 $x3314 $x2037 $x2833 $x216 $x3162 $x125 $x2022)))))))))))
(assert
 (let (($x447 (= cell_4_3 1)))
 (or $x447 (= cell_4_3 2) (= cell_4_3 3) (= cell_4_3 4) (= cell_4_3 5) (= cell_4_3 6) (= cell_4_3 7) (= cell_4_3 8) (= cell_4_3 9))))
(assert
 (let (($x2406 (= cell_5_3 9)))
 (let (($x7078 (= cell_5_3 8)))
 (let (($x244 (= cell_5_3 7)))
 (let (($x2164 (= cell_5_3 6)))
 (let (($x162 (= cell_5_3 5)))
 (let (($x583 (= cell_5_3 4)))
 (let (($x1430 (= cell_5_3 3)))
 (let (($x779 (= cell_5_3 2)))
 (let (($x3566 (= cell_5_3 1)))
 (or $x3566 $x779 $x1430 $x583 $x162 $x2164 $x244 $x7078 $x2406)))))))))))
(assert
 (let (($x2863 (= cell_6_3 9)))
 (let (($x806 (= cell_6_3 8)))
 (let (($x1459 (= cell_6_3 7)))
 (let (($x1829 (= cell_6_3 6)))
 (let (($x1210 (= cell_6_3 5)))
 (let (($x1773 (= cell_6_3 4)))
 (let (($x99 (= cell_6_3 3)))
 (let (($x1898 (= cell_6_3 2)))
 (let (($x2330 (= cell_6_3 1)))
 (or $x2330 $x1898 $x99 $x1773 $x1210 $x1829 $x1459 $x806 $x2863)))))))))))
(assert
 (let (($x1717 (= cell_7_3 9)))
 (let (($x3694 (= cell_7_3 8)))
 (let (($x3016 (= cell_7_3 7)))
 (let (($x1756 (= cell_7_3 6)))
 (let (($x1729 (= cell_7_3 5)))
 (let (($x1792 (= cell_7_3 4)))
 (let (($x1174 (= cell_7_3 3)))
 (let (($x2272 (= cell_7_3 2)))
 (let (($x2629 (= cell_7_3 1)))
 (or $x2629 $x2272 $x1174 $x1792 $x1729 $x1756 $x3016 $x3694 $x1717)))))))))))
(assert
 (let (($x151 (= cell_8_3 2)))
 (let (($x2867 (= cell_8_3 1)))
 (or $x2867 $x151 (= cell_8_3 3) (= cell_8_3 4) (= cell_8_3 5) (= cell_8_3 6) (= cell_8_3 7) (= cell_8_3 8) (= cell_8_3 9)))))
(assert
 (let (($x2777 (= cell_9_3 9)))
 (let (($x2800 (= cell_9_3 8)))
 (let (($x3335 (= cell_9_3 7)))
 (let (($x1584 (= cell_9_3 6)))
 (let (($x8972 (= cell_9_3 5)))
 (let (($x2161 (= cell_9_3 4)))
 (let (($x9323 (= cell_9_3 3)))
 (let (($x2988 (= cell_9_3 2)))
 (let (($x3417 (= cell_9_3 1)))
 (or $x3417 $x2988 $x9323 $x2161 $x8972 $x1584 $x3335 $x2800 $x2777)))))))))))
(assert
 (let (($x508 (= cell_1_4 1)))
 (or $x508 (= cell_1_4 2) (= cell_1_4 3) (= cell_1_4 4) (= cell_1_4 5) (= cell_1_4 6) (= cell_1_4 7) (= cell_1_4 8) (= cell_1_4 9))))
(assert
 (let (($x1130 (= cell_2_4 9)))
 (let (($x914 (= cell_2_4 8)))
 (let (($x2505 (= cell_2_4 7)))
 (let (($x1844 (= cell_2_4 6)))
 (let (($x3161 (= cell_2_4 5)))
 (let (($x9304 (= cell_2_4 4)))
 (let (($x524 (= cell_2_4 3)))
 (let (($x1682 (= cell_2_4 2)))
 (let (($x232 (= cell_2_4 1)))
 (or $x232 $x1682 $x524 $x9304 $x3161 $x1844 $x2505 $x914 $x1130)))))))))))
(assert
 (let (($x1810 (= cell_3_4 9)))
 (let (($x2179 (= cell_3_4 8)))
 (let (($x133 (= cell_3_4 7)))
 (let (($x536 (= cell_3_4 6)))
 (let (($x3597 (= cell_3_4 5)))
 (let (($x3679 (= cell_3_4 4)))
 (let (($x1431 (= cell_3_4 3)))
 (let (($x1192 (= cell_3_4 2)))
 (let (($x2999 (= cell_3_4 1)))
 (or $x2999 $x1192 $x1431 $x3679 $x3597 $x536 $x133 $x2179 $x1810)))))))))))
(assert
 (let (($x997 (= cell_4_4 9)))
 (let (($x1166 (= cell_4_4 8)))
 (let (($x9193 (= cell_4_4 7)))
 (let (($x3677 (= cell_4_4 6)))
 (let (($x3166 (= cell_4_4 5)))
 (let (($x8549 (= cell_4_4 4)))
 (let (($x2207 (= cell_4_4 3)))
 (let (($x851 (= cell_4_4 2)))
 (let (($x944 (= cell_4_4 1)))
 (or $x944 $x851 $x2207 $x8549 $x3166 $x3677 $x9193 $x1166 $x997)))))))))))
(assert
 (let (($x625 (= cell_5_4 9)))
 (let (($x8341 (= cell_5_4 8)))
 (let (($x711 (= cell_5_4 7)))
 (let (($x3305 (= cell_5_4 6)))
 (let (($x1642 (= cell_5_4 5)))
 (let (($x2417 (= cell_5_4 4)))
 (let (($x3013 (= cell_5_4 3)))
 (let (($x2954 (= cell_5_4 2)))
 (let (($x175 (= cell_5_4 1)))
 (or $x175 $x2954 $x3013 $x2417 $x1642 $x3305 $x711 $x8341 $x625)))))))))))
(assert
 (let (($x1730 (= cell_6_4 2)))
 (or (= cell_6_4 1) $x1730 (= cell_6_4 3) (= cell_6_4 4) (= cell_6_4 5) (= cell_6_4 6) (= cell_6_4 7) (= cell_6_4 8) (= cell_6_4 9))))
(assert
 (let (($x2275 (= cell_7_4 9)))
 (let (($x1769 (= cell_7_4 8)))
 (let (($x1542 (= cell_7_4 7)))
 (let (($x1659 (= cell_7_4 6)))
 (let (($x710 (= cell_7_4 5)))
 (let (($x305 (= cell_7_4 4)))
 (let (($x2684 (= cell_7_4 3)))
 (let (($x2279 (= cell_7_4 2)))
 (let (($x2450 (= cell_7_4 1)))
 (or $x2450 $x2279 $x2684 $x305 $x710 $x1659 $x1542 $x1769 $x2275)))))))))))
(assert
 (let (($x3557 (= cell_8_4 2)))
 (let (($x525 (= cell_8_4 1)))
 (or $x525 $x3557 (= cell_8_4 3) (= cell_8_4 4) (= cell_8_4 5) (= cell_8_4 6) (= cell_8_4 7) (= cell_8_4 8) (= cell_8_4 9)))))
(assert
 (let (($x293 (= cell_9_4 9)))
 (let (($x2051 (= cell_9_4 8)))
 (let (($x2915 (= cell_9_4 7)))
 (let (($x430 (= cell_9_4 6)))
 (let (($x1475 (= cell_9_4 5)))
 (let (($x457 (= cell_9_4 4)))
 (let (($x559 (= cell_9_4 3)))
 (let (($x3321 (= cell_9_4 2)))
 (let (($x2572 (= cell_9_4 1)))
 (or $x2572 $x3321 $x559 $x457 $x1475 $x430 $x2915 $x2051 $x293)))))))))))
(assert
 (let (($x2528 (= cell_1_5 9)))
 (let (($x1350 (= cell_1_5 8)))
 (let (($x2079 (= cell_1_5 7)))
 (let (($x5037 (= cell_1_5 6)))
 (let (($x1837 (= cell_1_5 5)))
 (let (($x3801 (= cell_1_5 4)))
 (let (($x3834 (= cell_1_5 3)))
 (let (($x2062 (= cell_1_5 2)))
 (let (($x1938 (= cell_1_5 1)))
 (or $x1938 $x2062 $x3834 $x3801 $x1837 $x5037 $x2079 $x1350 $x2528)))))))))))
(assert
 (let (($x2306 (= cell_2_5 9)))
 (let (($x411 (= cell_2_5 8)))
 (let (($x1724 (= cell_2_5 7)))
 (let (($x2495 (= cell_2_5 6)))
 (let (($x724 (= cell_2_5 5)))
 (let (($x399 (= cell_2_5 4)))
 (let (($x2675 (= cell_2_5 3)))
 (let (($x1237 (= cell_2_5 2)))
 (let (($x1700 (= cell_2_5 1)))
 (or $x1700 $x1237 $x2675 $x399 $x724 $x2495 $x1724 $x411 $x2306)))))))))))
(assert
 (let (($x2403 (= cell_3_5 9)))
 (let (($x496 (= cell_3_5 8)))
 (let (($x1428 (= cell_3_5 7)))
 (let (($x6473 (= cell_3_5 6)))
 (let (($x2317 (= cell_3_5 5)))
 (let (($x455 (= cell_3_5 4)))
 (let (($x3614 (= cell_3_5 3)))
 (let (($x574 (= cell_3_5 2)))
 (let (($x1408 (= cell_3_5 1)))
 (or $x1408 $x574 $x3614 $x455 $x2317 $x6473 $x1428 $x496 $x2403)))))))))))
(assert
 (let (($x755 (= cell_4_5 9)))
 (let (($x377 (= cell_4_5 8)))
 (let (($x2995 (= cell_4_5 7)))
 (let (($x1033 (= cell_4_5 6)))
 (let (($x368 (= cell_4_5 5)))
 (let (($x9433 (= cell_4_5 4)))
 (let (($x1158 (= cell_4_5 3)))
 (let (($x843 (= cell_4_5 2)))
 (let (($x3206 (= cell_4_5 1)))
 (or $x3206 $x843 $x1158 $x9433 $x368 $x1033 $x2995 $x377 $x755)))))))))))
(assert
 (let (($x2409 (= cell_5_5 9)))
 (let (($x2641 (= cell_5_5 8)))
 (let (($x235 (= cell_5_5 7)))
 (let (($x1909 (= cell_5_5 6)))
 (let (($x1421 (= cell_5_5 5)))
 (let (($x173 (= cell_5_5 4)))
 (let (($x2484 (= cell_5_5 3)))
 (let (($x3042 (= cell_5_5 2)))
 (let (($x785 (= cell_5_5 1)))
 (or $x785 $x3042 $x2484 $x173 $x1421 $x1909 $x235 $x2641 $x2409)))))))))))
(assert
 (let (($x2464 (= cell_6_5 9)))
 (let (($x1353 (= cell_6_5 8)))
 (let (($x463 (= cell_6_5 7)))
 (let (($x2658 (= cell_6_5 6)))
 (let (($x889 (= cell_6_5 5)))
 (let (($x2918 (= cell_6_5 4)))
 (let (($x2463 (= cell_6_5 3)))
 (let (($x3233 (= cell_6_5 2)))
 (let (($x3502 (= cell_6_5 1)))
 (or $x3502 $x3233 $x2463 $x2918 $x889 $x2658 $x463 $x1353 $x2464)))))))))))
(assert
 (let (($x635 (= cell_7_5 1)))
 (or $x635 (= cell_7_5 2) (= cell_7_5 3) (= cell_7_5 4) (= cell_7_5 5) (= cell_7_5 6) (= cell_7_5 7) (= cell_7_5 8) (= cell_7_5 9))))
(assert
 (let (($x3689 (= cell_8_5 1)))
 (or $x3689 (= cell_8_5 2) (= cell_8_5 3) (= cell_8_5 4) (= cell_8_5 5) (= cell_8_5 6) (= cell_8_5 7) (= cell_8_5 8) (= cell_8_5 9))))
(assert
 (let (($x1351 (= cell_9_5 9)))
 (let (($x3228 (= cell_9_5 8)))
 (let (($x3504 (= cell_9_5 7)))
 (let (($x2020 (= cell_9_5 6)))
 (let (($x2772 (= cell_9_5 5)))
 (let (($x4500 (= cell_9_5 4)))
 (let (($x1944 (= cell_9_5 3)))
 (let (($x2577 (= cell_9_5 2)))
 (let (($x3331 (= cell_9_5 1)))
 (or $x3331 $x2577 $x1944 $x4500 $x2772 $x2020 $x3504 $x3228 $x1351)))))))))))
(assert
 (let (($x3723 (= cell_1_6 9)))
 (let (($x1496 (= cell_1_6 8)))
 (let (($x2377 (= cell_1_6 7)))
 (let (($x3729 (= cell_1_6 6)))
 (let (($x2162 (= cell_1_6 5)))
 (let (($x1354 (= cell_1_6 4)))
 (let (($x942 (= cell_1_6 3)))
 (let (($x2157 (= cell_1_6 2)))
 (let (($x3257 (= cell_1_6 1)))
 (or $x3257 $x2157 $x942 $x1354 $x2162 $x3729 $x2377 $x1496 $x3723)))))))))))
(assert
 (let (($x231 (= cell_2_6 9)))
 (let (($x675 (= cell_2_6 8)))
 (let (($x1918 (= cell_2_6 7)))
 (let (($x2799 (= cell_2_6 6)))
 (let (($x1846 (= cell_2_6 5)))
 (let (($x470 (= cell_2_6 4)))
 (let (($x405 (= cell_2_6 3)))
 (let (($x681 (= cell_2_6 2)))
 (let (($x3793 (= cell_2_6 1)))
 (or $x3793 $x681 $x405 $x470 $x1846 $x2799 $x1918 $x675 $x231)))))))))))
(assert
 (let (($x2142 (= cell_3_6 2)))
 (or (= cell_3_6 1) $x2142 (= cell_3_6 3) (= cell_3_6 4) (= cell_3_6 5) (= cell_3_6 6) (= cell_3_6 7) (= cell_3_6 8) (= cell_3_6 9))))
(assert
 (let (($x3115 (= cell_4_6 9)))
 (let (($x56 (= cell_4_6 8)))
 (let (($x2378 (= cell_4_6 7)))
 (let (($x1643 (= cell_4_6 6)))
 (let (($x3361 (= cell_4_6 5)))
 (let (($x628 (= cell_4_6 4)))
 (let (($x2018 (= cell_4_6 3)))
 (let (($x1920 (= cell_4_6 2)))
 (let (($x3310 (= cell_4_6 1)))
 (or $x3310 $x1920 $x2018 $x628 $x3361 $x1643 $x2378 $x56 $x3115)))))))))))
(assert
 (let (($x2153 (= cell_5_6 1)))
 (or $x2153 (= cell_5_6 2) (= cell_5_6 3) (= cell_5_6 4) (= cell_5_6 5) (= cell_5_6 6) (= cell_5_6 7) (= cell_5_6 8) (= cell_5_6 9))))
(assert
 (let (($x1789 (= cell_6_6 9)))
 (let (($x571 (= cell_6_6 8)))
 (let (($x1218 (= cell_6_6 7)))
 (let (($x3126 (= cell_6_6 6)))
 (let (($x2239 (= cell_6_6 5)))
 (let (($x1582 (= cell_6_6 4)))
 (let (($x1522 (= cell_6_6 3)))
 (let (($x2603 (= cell_6_6 2)))
 (let (($x5306 (= cell_6_6 1)))
 (or $x5306 $x2603 $x1522 $x1582 $x2239 $x3126 $x1218 $x571 $x1789)))))))))))
(assert
 (let (($x2747 (= cell_7_6 2)))
 (let (($x566 (= cell_7_6 1)))
 (or $x566 $x2747 (= cell_7_6 3) (= cell_7_6 4) (= cell_7_6 5) (= cell_7_6 6) (= cell_7_6 7) (= cell_7_6 8) (= cell_7_6 9)))))
(assert
 (let (($x925 (= cell_8_6 2)))
 (let (($x1691 (= cell_8_6 1)))
 (or $x1691 $x925 (= cell_8_6 3) (= cell_8_6 4) (= cell_8_6 5) (= cell_8_6 6) (= cell_8_6 7) (= cell_8_6 8) (= cell_8_6 9)))))
(assert
 (let (($x3750 (= cell_9_6 9)))
 (let (($x233 (= cell_9_6 8)))
 (let (($x1006 (= cell_9_6 7)))
 (let (($x954 (= cell_9_6 6)))
 (let (($x783 (= cell_9_6 5)))
 (let (($x3128 (= cell_9_6 4)))
 (let (($x1146 (= cell_9_6 3)))
 (let (($x1101 (= cell_9_6 2)))
 (let (($x1360 (= cell_9_6 1)))
 (or $x1360 $x1101 $x1146 $x3128 $x783 $x954 $x1006 $x233 $x3750)))))))))))
(assert
 (let (($x1746 (= cell_1_7 9)))
 (let (($x1635 (= cell_1_7 8)))
 (let (($x7874 (= cell_1_7 7)))
 (let (($x1303 (= cell_1_7 6)))
 (let (($x1733 (= cell_1_7 5)))
 (let (($x2389 (= cell_1_7 4)))
 (let (($x619 (= cell_1_7 3)))
 (let (($x3748 (= cell_1_7 2)))
 (let (($x671 (= cell_1_7 1)))
 (or $x671 $x3748 $x619 $x2389 $x1733 $x1303 $x7874 $x1635 $x1746)))))))))))
(assert
 (let (($x1053 (= cell_2_7 1)))
 (or $x1053 (= cell_2_7 2) (= cell_2_7 3) (= cell_2_7 4) (= cell_2_7 5) (= cell_2_7 6) (= cell_2_7 7) (= cell_2_7 8) (= cell_2_7 9))))
(assert
 (let (($x2216 (= cell_3_7 2)))
 (let (($x1227 (= cell_3_7 1)))
 (or $x1227 $x2216 (= cell_3_7 3) (= cell_3_7 4) (= cell_3_7 5) (= cell_3_7 6) (= cell_3_7 7) (= cell_3_7 8) (= cell_3_7 9)))))
(assert
 (let (($x3451 (= cell_4_7 9)))
 (let (($x749 (= cell_4_7 8)))
 (let (($x1719 (= cell_4_7 7)))
 (let (($x3074 (= cell_4_7 6)))
 (let (($x2109 (= cell_4_7 5)))
 (let (($x1202 (= cell_4_7 4)))
 (let (($x3459 (= cell_4_7 3)))
 (let (($x636 (= cell_4_7 2)))
 (let (($x3808 (= cell_4_7 1)))
 (or $x3808 $x636 $x3459 $x1202 $x2109 $x3074 $x1719 $x749 $x3451)))))))))))
(assert
 (let (($x1857 (= cell_5_7 9)))
 (let (($x2703 (= cell_5_7 8)))
 (let (($x2074 (= cell_5_7 7)))
 (let (($x969 (= cell_5_7 6)))
 (let (($x1992 (= cell_5_7 5)))
 (let (($x1052 (= cell_5_7 4)))
 (let (($x2757 (= cell_5_7 3)))
 (let (($x8411 (= cell_5_7 2)))
 (let (($x3703 (= cell_5_7 1)))
 (or $x3703 $x8411 $x2757 $x1052 $x1992 $x969 $x2074 $x2703 $x1857)))))))))))
(assert
 (let (($x3722 (= cell_6_7 9)))
 (let (($x2875 (= cell_6_7 8)))
 (let (($x517 (= cell_6_7 7)))
 (let (($x2422 (= cell_6_7 6)))
 (let (($x3325 (= cell_6_7 5)))
 (let (($x1285 (= cell_6_7 4)))
 (let (($x820 (= cell_6_7 3)))
 (let (($x3105 (= cell_6_7 2)))
 (let (($x1856 (= cell_6_7 1)))
 (or $x1856 $x3105 $x820 $x1285 $x3325 $x2422 $x517 $x2875 $x3722)))))))))))
(assert
 (let (($x1419 (= cell_7_7 9)))
 (let (($x1895 (= cell_7_7 8)))
 (let (($x2380 (= cell_7_7 7)))
 (let (($x2144 (= cell_7_7 6)))
 (let (($x3797 (= cell_7_7 5)))
 (let (($x3296 (= cell_7_7 4)))
 (let (($x2120 (= cell_7_7 3)))
 (let (($x3760 (= cell_7_7 2)))
 (let (($x1999 (= cell_7_7 1)))
 (or $x1999 $x3760 $x2120 $x3296 $x3797 $x2144 $x2380 $x1895 $x1419)))))))))))
(assert
 (let (($x1981 (= cell_8_7 9)))
 (let (($x782 (= cell_8_7 8)))
 (let (($x3777 (= cell_8_7 7)))
 (let (($x227 (= cell_8_7 6)))
 (let (($x1449 (= cell_8_7 5)))
 (let (($x444 (= cell_8_7 4)))
 (let (($x325 (= cell_8_7 3)))
 (let (($x2507 (= cell_8_7 2)))
 (let (($x3064 (= cell_8_7 1)))
 (or $x3064 $x2507 $x325 $x444 $x1449 $x227 $x3777 $x782 $x1981)))))))))))
(assert
 (let (($x9773 (= cell_9_7 9)))
 (let (($x3559 (= cell_9_7 8)))
 (let (($x3590 (= cell_9_7 7)))
 (let (($x1403 (= cell_9_7 6)))
 (let (($x247 (= cell_9_7 5)))
 (let (($x1102 (= cell_9_7 4)))
 (let (($x2451 (= cell_9_7 3)))
 (let (($x1456 (= cell_9_7 2)))
 (let (($x3177 (= cell_9_7 1)))
 (or $x3177 $x1456 $x2451 $x1102 $x247 $x1403 $x3590 $x3559 $x9773)))))))))))
(assert
 (let (($x3215 (= cell_1_8 9)))
 (let (($x2454 (= cell_1_8 8)))
 (let (($x3821 (= cell_1_8 7)))
 (let (($x2056 (= cell_1_8 6)))
 (let (($x2396 (= cell_1_8 5)))
 (let (($x7076 (= cell_1_8 4)))
 (let (($x2019 (= cell_1_8 3)))
 (let (($x968 (= cell_1_8 2)))
 (let (($x1339 (= cell_1_8 1)))
 (or $x1339 $x968 $x2019 $x7076 $x2396 $x2056 $x3821 $x2454 $x3215)))))))))))
(assert
 (let (($x2215 (= cell_2_8 2)))
 (or (= cell_2_8 1) $x2215 (= cell_2_8 3) (= cell_2_8 4) (= cell_2_8 5) (= cell_2_8 6) (= cell_2_8 7) (= cell_2_8 8) (= cell_2_8 9))))
(assert
 (let (($x2912 (= cell_3_8 9)))
 (let (($x3431 (= cell_3_8 8)))
 (let (($x659 (= cell_3_8 7)))
 (let (($x1362 (= cell_3_8 6)))
 (let (($x1748 (= cell_3_8 5)))
 (let (($x553 (= cell_3_8 4)))
 (let (($x2596 (= cell_3_8 3)))
 (let (($x706 (= cell_3_8 2)))
 (let (($x1296 (= cell_3_8 1)))
 (or $x1296 $x706 $x2596 $x553 $x1748 $x1362 $x659 $x3431 $x2912)))))))))))
(assert
 (let (($x2211 (= cell_4_8 9)))
 (let (($x3308 (= cell_4_8 8)))
 (let (($x1681 (= cell_4_8 7)))
 (let (($x3496 (= cell_4_8 6)))
 (let (($x8975 (= cell_4_8 5)))
 (let (($x120 (= cell_4_8 4)))
 (let (($x1943 (= cell_4_8 3)))
 (let (($x3581 (= cell_4_8 2)))
 (let (($x780 (= cell_4_8 1)))
 (or $x780 $x3581 $x1943 $x120 $x8975 $x3496 $x1681 $x3308 $x2211)))))))))))
(assert
 (let (($x63 (= cell_5_8 9)))
 (let (($x1804 (= cell_5_8 8)))
 (let (($x1141 (= cell_5_8 7)))
 (let (($x2010 (= cell_5_8 6)))
 (let (($x822 (= cell_5_8 5)))
 (let (($x2904 (= cell_5_8 4)))
 (let (($x2269 (= cell_5_8 3)))
 (let (($x1842 (= cell_5_8 2)))
 (let (($x5054 (= cell_5_8 1)))
 (or $x5054 $x1842 $x2269 $x2904 $x822 $x2010 $x1141 $x1804 $x63)))))))))))
(assert
 (let (($x1378 (= cell_6_8 1)))
 (or $x1378 (= cell_6_8 2) (= cell_6_8 3) (= cell_6_8 4) (= cell_6_8 5) (= cell_6_8 6) (= cell_6_8 7) (= cell_6_8 8) (= cell_6_8 9))))
(assert
 (let (($x973 (= cell_7_8 9)))
 (let (($x678 (= cell_7_8 8)))
 (let (($x2096 (= cell_7_8 7)))
 (let (($x551 (= cell_7_8 6)))
 (let (($x3368 (= cell_7_8 5)))
 (let (($x2218 (= cell_7_8 4)))
 (let (($x684 (= cell_7_8 3)))
 (let (($x3057 (= cell_7_8 2)))
 (let (($x2047 (= cell_7_8 1)))
 (or $x2047 $x3057 $x684 $x2218 $x3368 $x551 $x2096 $x678 $x973)))))))))))
(assert
 (let (($x2431 (= cell_8_8 9)))
 (let (($x5613 (= cell_8_8 8)))
 (let (($x3751 (= cell_8_8 7)))
 (let (($x439 (= cell_8_8 6)))
 (let (($x2097 (= cell_8_8 5)))
 (let (($x1621 (= cell_8_8 4)))
 (let (($x1306 (= cell_8_8 3)))
 (let (($x2848 (= cell_8_8 2)))
 (let (($x2692 (= cell_8_8 1)))
 (or $x2692 $x2848 $x1306 $x1621 $x2097 $x439 $x3751 $x5613 $x2431)))))))))))
(assert
 (let (($x435 (= cell_9_8 9)))
 (let (($x2567 (= cell_9_8 8)))
 (let (($x3571 (= cell_9_8 7)))
 (let (($x3270 (= cell_9_8 6)))
 (let (($x709 (= cell_9_8 5)))
 (let (($x484 (= cell_9_8 4)))
 (let (($x600 (= cell_9_8 3)))
 (let (($x912 (= cell_9_8 2)))
 (let (($x2447 (= cell_9_8 1)))
 (or $x2447 $x912 $x600 $x484 $x709 $x3270 $x3571 $x2567 $x435)))))))))))
(assert
 (let (($x2613 (= cell_1_9 9)))
 (let (($x1803 (= cell_1_9 8)))
 (let (($x1470 (= cell_1_9 7)))
 (let (($x2580 (= cell_1_9 6)))
 (let (($x1695 (= cell_1_9 5)))
 (let (($x612 (= cell_1_9 4)))
 (let (($x2472 (= cell_1_9 3)))
 (let (($x3567 (= cell_1_9 2)))
 (let (($x575 (= cell_1_9 1)))
 (or $x575 $x3567 $x2472 $x612 $x1695 $x2580 $x1470 $x1803 $x2613)))))))))))
(assert
 (let (($x1039 (= cell_2_9 9)))
 (let (($x596 (= cell_2_9 8)))
 (let (($x1529 (= cell_2_9 7)))
 (let (($x1665 (= cell_2_9 6)))
 (let (($x1236 (= cell_2_9 5)))
 (let (($x3749 (= cell_2_9 4)))
 (let (($x453 (= cell_2_9 3)))
 (let (($x5535 (= cell_2_9 2)))
 (let (($x2771 (= cell_2_9 1)))
 (or $x2771 $x5535 $x453 $x3749 $x1236 $x1665 $x1529 $x596 $x1039)))))))))))
(assert
 (let (($x2217 (= cell_3_9 9)))
 (let (($x1932 (= cell_3_9 8)))
 (let (($x2804 (= cell_3_9 7)))
 (let (($x3499 (= cell_3_9 6)))
 (let (($x33 (= cell_3_9 5)))
 (let (($x1950 (= cell_3_9 4)))
 (let (($x1111 (= cell_3_9 3)))
 (let (($x3104 (= cell_3_9 2)))
 (let (($x3773 (= cell_3_9 1)))
 (or $x3773 $x3104 $x1111 $x1950 $x33 $x3499 $x2804 $x1932 $x2217)))))))))))
(assert
 (let (($x839 (= cell_4_9 9)))
 (let (($x2697 (= cell_4_9 8)))
 (let (($x3243 (= cell_4_9 7)))
 (let (($x513 (= cell_4_9 6)))
 (let (($x1515 (= cell_4_9 5)))
 (let (($x1805 (= cell_4_9 4)))
 (let (($x1720 (= cell_4_9 3)))
 (let (($x66 (= cell_4_9 2)))
 (let (($x1107 (= cell_4_9 1)))
 (or $x1107 $x66 $x1720 $x1805 $x1515 $x513 $x3243 $x2697 $x839)))))))))))
(assert
 (let (($x2517 (= cell_5_9 2)))
 (or (= cell_5_9 1) $x2517 (= cell_5_9 3) (= cell_5_9 4) (= cell_5_9 5) (= cell_5_9 6) (= cell_5_9 7) (= cell_5_9 8) (= cell_5_9 9))))
(assert
 (let (($x921 (= cell_6_9 9)))
 (let (($x2397 (= cell_6_9 8)))
 (let (($x3628 (= cell_6_9 7)))
 (let (($x2387 (= cell_6_9 6)))
 (let (($x3185 (= cell_6_9 5)))
 (let (($x3067 (= cell_6_9 4)))
 (let (($x3836 (= cell_6_9 3)))
 (let (($x313 (= cell_6_9 2)))
 (let (($x3381 (= cell_6_9 1)))
 (or $x3381 $x313 $x3836 $x3067 $x3185 $x2387 $x3628 $x2397 $x921)))))))))))
(assert
 (let (($x371 (= cell_7_9 9)))
 (let (($x1479 (= cell_7_9 8)))
 (let (($x2347 (= cell_7_9 7)))
 (let (($x3261 (= cell_7_9 6)))
 (let (($x1401 (= cell_7_9 5)))
 (let (($x1491 (= cell_7_9 4)))
 (let (($x2860 (= cell_7_9 3)))
 (let (($x3771 (= cell_7_9 2)))
 (let (($x1219 (= cell_7_9 1)))
 (or $x1219 $x3771 $x2860 $x1491 $x1401 $x3261 $x2347 $x1479 $x371)))))))))))
(assert
 (let (($x1638 (= cell_8_9 9)))
 (let (($x3034 (= cell_8_9 8)))
 (let (($x3433 (= cell_8_9 7)))
 (let (($x2943 (= cell_8_9 6)))
 (let (($x8973 (= cell_8_9 5)))
 (let (($x1570 (= cell_8_9 4)))
 (let (($x5 (= cell_8_9 3)))
 (let (($x949 (= cell_8_9 2)))
 (let (($x3779 (= cell_8_9 1)))
 (or $x3779 $x949 $x5 $x1570 $x8973 $x2943 $x3433 $x3034 $x1638)))))))))))
(assert
 (let (($x3478 (= cell_9_9 1)))
 (or $x3478 (= cell_9_9 2) (= cell_9_9 3) (= cell_9_9 4) (= cell_9_9 5) (= cell_9_9 6) (= cell_9_9 7) (= cell_9_9 8) (= cell_9_9 9))))
(assert
 (and (distinct cell_1_1 cell_1_2 cell_1_3 cell_1_4 cell_1_5 cell_1_6 cell_1_7 cell_1_8 cell_1_9) true))
(assert
 (and (distinct cell_2_1 cell_2_2 cell_2_3 cell_2_4 cell_2_5 cell_2_6 cell_2_7 cell_2_8 cell_2_9) true))
(assert
 (and (distinct cell_3_1 cell_3_2 cell_3_3 cell_3_4 cell_3_5 cell_3_6 cell_3_7 cell_3_8 cell_3_9) true))
(assert
 (and (distinct cell_4_1 cell_4_2 cell_4_3 cell_4_4 cell_4_5 cell_4_6 cell_4_7 cell_4_8 cell_4_9) true))
(assert
 (and (distinct cell_5_1 cell_5_2 cell_5_3 cell_5_4 cell_5_5 cell_5_6 cell_5_7 cell_5_8 cell_5_9) true))
(assert
 (and (distinct cell_6_1 cell_6_2 cell_6_3 cell_6_4 cell_6_5 cell_6_6 cell_6_7 cell_6_8 cell_6_9) true))
(assert
 (and (distinct cell_7_1 cell_7_2 cell_7_3 cell_7_4 cell_7_5 cell_7_6 cell_7_7 cell_7_8 cell_7_9) true))
(assert
 (and (distinct cell_8_1 cell_8_2 cell_8_3 cell_8_4 cell_8_5 cell_8_6 cell_8_7 cell_8_8 cell_8_9) true))
(assert
 (and (distinct cell_9_1 cell_9_2 cell_9_3 cell_9_4 cell_9_5 cell_9_6 cell_9_7 cell_9_8 cell_9_9) true))
(assert
 (and (distinct cell_1_1 cell_2_1 cell_3_1 cell_4_1 cell_5_1 cell_6_1 cell_7_1 cell_8_1 cell_9_1) true))
(assert
 (and (distinct cell_1_2 cell_2_2 cell_3_2 cell_4_2 cell_5_2 cell_6_2 cell_7_2 cell_8_2 cell_9_2) true))
(assert
 (and (distinct cell_1_3 cell_2_3 cell_3_3 cell_4_3 cell_5_3 cell_6_3 cell_7_3 cell_8_3 cell_9_3) true))
(assert
 (and (distinct cell_1_4 cell_2_4 cell_3_4 cell_4_4 cell_5_4 cell_6_4 cell_7_4 cell_8_4 cell_9_4) true))
(assert
 (and (distinct cell_1_5 cell_2_5 cell_3_5 cell_4_5 cell_5_5 cell_6_5 cell_7_5 cell_8_5 cell_9_5) true))
(assert
 (and (distinct cell_1_6 cell_2_6 cell_3_6 cell_4_6 cell_5_6 cell_6_6 cell_7_6 cell_8_6 cell_9_6) true))
(assert
 (and (distinct cell_1_7 cell_2_7 cell_3_7 cell_4_7 cell_5_7 cell_6_7 cell_7_7 cell_8_7 cell_9_7) true))
(assert
 (and (distinct cell_1_8 cell_2_8 cell_3_8 cell_4_8 cell_5_8 cell_6_8 cell_7_8 cell_8_8 cell_9_8) true))
(assert
 (and (distinct cell_1_9 cell_2_9 cell_3_9 cell_4_9 cell_5_9 cell_6_9 cell_7_9 cell_8_9 cell_9_9) true))
(assert
 (and (distinct cell_1_1 cell_1_2 cell_1_3 cell_2_1 cell_2_2 cell_2_3 cell_3_1 cell_3_2 cell_3_3) true))
(assert
 (and (distinct cell_1_4 cell_1_5 cell_1_6 cell_2_4 cell_2_5 cell_2_6 cell_3_4 cell_3_5 cell_3_6) true))
(assert
 (and (distinct cell_1_7 cell_1_8 cell_1_9 cell_2_7 cell_2_8 cell_2_9 cell_3_7 cell_3_8 cell_3_9) true))
(assert
 (and (distinct cell_4_1 cell_4_2 cell_4_3 cell_5_1 cell_5_2 cell_5_3 cell_6_1 cell_6_2 cell_6_3) true))
(assert
 (and (distinct cell_4_4 cell_4_5 cell_4_6 cell_5_4 cell_5_5 cell_5_6 cell_6_4 cell_6_5 cell_6_6) true))
(assert
 (and (distinct cell_4_7 cell_4_8 cell_4_9 cell_5_7 cell_5_8 cell_5_9 cell_6_7 cell_6_8 cell_6_9) true))
(assert
 (and (distinct cell_7_1 cell_7_2 cell_7_3 cell_8_1 cell_8_2 cell_8_3 cell_9_1 cell_9_2 cell_9_3) true))
(assert
 (and (distinct cell_7_4 cell_7_5 cell_7_6 cell_8_4 cell_8_5 cell_8_6 cell_9_4 cell_9_5 cell_9_6) true))
(assert
 (and (distinct cell_7_7 cell_7_8 cell_7_9 cell_8_7 cell_8_8 cell_8_9 cell_9_7 cell_9_8 cell_9_9) true))
(assert
 (let (($x2214 (and (distinct cell_5_9 cell_6_8 cell_7_7 cell_8_6) true)))
 (let (($x850 (and (distinct cell_2_9 cell_3_8 cell_4_7 cell_5_6 cell_6_5 cell_7_4 cell_8_3 cell_9_2) true)))
 (let (($x1369 (and (distinct cell_1_8 cell_2_7 cell_3_6 cell_4_5 cell_5_4 cell_6_3 cell_7_2 cell_8_1) true)))
 (let (($x2776 (and (distinct cell_1_5 cell_2_4 cell_3_3 cell_4_2) true)))
 (let (($x3090 (and (distinct cell_5_1 cell_6_2 cell_7_3 cell_8_4) true)))
 (let (($x3109 (and (distinct cell_2_1 cell_3_2 cell_4_3 cell_5_4 cell_6_5 cell_7_6 cell_8_7 cell_9_8) true)))
 (let (($x1625 (and (distinct cell_1_2 cell_2_3 cell_3_4 cell_4_5 cell_5_6 cell_6_7 cell_7_8 cell_8_9) true)))
 (let (($x2488 (and (distinct cell_1_5 cell_2_6 cell_3_7 cell_4_8) true)))
 (and $x2488 $x1625 $x3109 $x3090 $x2776 $x1369 $x850 $x2214))))))))))
(assert
 (= cell_8_7 2))
(check-sat)
